NaCl <100> (Na -> K)
   1.0000000000000000
    11.2804000000000002     0.0000000000000000     0.0000000000000000
     0.0000000000000000    11.2804000000000002     0.0000000000000000
     0.0000000000000000     0.0000000000000000    31.9206000000000003
   Na   Cl    K
   47   48    1
Selective Dynamics
Direct
     0.0000000000000000     0.0000000000000000     0.2791316579262295     T  T  T
     0.0000000000000000     0.0000000000000000     0.4558263315852459     F  F  F
     0.0000000000000000     0.0000000000000000     0.6325210052442624     T  T  T
     0.0000000000000000     0.2500000000000000     0.3674789947557377     T  T  T
     0.0000000000000000     0.2500000000000000     0.5441736684147541     F  F  F
     0.0000000000000000     0.2500000000000000     0.7208683420737706     T  T  T
     0.0000000000000000     0.4999999999999999     0.2791316579262295     T  T  T
     0.0000000000000000     0.4999999999999999     0.4558263315852459     F  F  F
     0.0000000000000000     0.4999999999999999     0.6325210052442624     T  T  T
     0.0000000000000000     0.7500000000000000     0.3674789947557377     T  T  T
     0.0000000000000000     0.7500000000000000     0.5441736684147541     F  F  F
     0.0000000000000000     0.7500000000000000     0.7208683420737706     T  T  T
     0.2500000000000000     0.0000000000000000     0.3674789947557377     T  T  T
     0.2500000000000000     0.0000000000000000     0.5441736684147541     F  F  F
     0.2500000000000000     0.0000000000000000     0.7208683420737706     T  T  T
     0.2500000000000000     0.2500000000000000     0.2791316579262295     T  T  T
     0.2500000000000000     0.2500000000000000     0.4558263315852459     F  F  F
     0.2500000000000000     0.2500000000000000     0.6325210052442624     T  T  T
     0.2500000000000000     0.4999999999999999     0.3674789947557377     T  T  T
     0.2500000000000000     0.4999999999999999     0.5441736684147541     F  F  F
     0.2500000000000000     0.4999999999999999     0.7208683420737706     T  T  T
     0.2500000000000000     0.7500000000000000     0.2791316579262295     T  T  T
     0.2500000000000000     0.7500000000000000     0.4558263315852459     F  F  F
     0.2500000000000000     0.7500000000000000     0.6325210052442624     T  T  T
     0.4999999999999999     0.0000000000000000     0.2791316579262295     T  T  T
     0.4999999999999999     0.0000000000000000     0.4558263315852459     F  F  F
     0.4999999999999999     0.0000000000000000     0.6325210052442624     T  T  T
     0.4999999999999999     0.2500000000000000     0.3674789947557377     T  T  T
     0.4999999999999999     0.2500000000000000     0.5441736684147541     F  F  F
     0.4999999999999999     0.4999999999999999     0.2791316579262295     T  T  T
     0.4999999999999999     0.4999999999999999     0.4558263315852459     F  F  F
     0.4999999999999999     0.4999999999999999     0.6325210052442624     T  T  T
     0.4999999999999999     0.7500000000000000     0.3674789947557377     T  T  T
     0.4999999999999999     0.7500000000000000     0.5441736684147541     F  F  F
     0.4999999999999999     0.7500000000000000     0.7208683420737706     T  T  T
     0.7500000000000000     0.0000000000000000     0.3674789947557377     T  T  T
     0.7500000000000000     0.0000000000000000     0.5441736684147541     F  F  F
     0.7500000000000000     0.0000000000000000     0.7208683420737706     T  T  T
     0.7500000000000000     0.2500000000000000     0.2791316579262295     T  T  T
     0.7500000000000000     0.2500000000000000     0.4558263315852459     F  F  F
     0.7500000000000000     0.2500000000000000     0.6325210052442624     T  T  T
     0.7500000000000000     0.4999999999999999     0.3674789947557377     T  T  T
     0.7500000000000000     0.4999999999999999     0.5441736684147541     F  F  F
     0.7500000000000000     0.4999999999999999     0.7208683420737706     T  T  T
     0.7500000000000000     0.7500000000000000     0.2791316579262295     T  T  T
     0.7500000000000000     0.7500000000000000     0.4558263315852459     F  F  F
     0.7500000000000000     0.7500000000000000     0.6325210052442624     T  T  T
     0.0000000000000000     0.0000000000000000     0.3674789947557377     T  T  T
     0.0000000000000000     0.0000000000000000     0.5441736684147541     F  F  F
     0.0000000000000000     0.0000000000000000     0.7208683420737706     T  T  T
     0.0000000000000000     0.2500000000000000     0.2791316579262295     T  T  T
     0.0000000000000000     0.2500000000000000     0.4558263315852459     F  F  F
     0.0000000000000000     0.2500000000000000     0.6325210052442624     T  T  T
     0.0000000000000000     0.4999999999999999     0.3674789947557377     T  T  T
     0.0000000000000000     0.4999999999999999     0.5441736684147541     F  F  F
     0.0000000000000000     0.4999999999999999     0.7208683420737706     T  T  T
     0.0000000000000000     0.7500000000000000     0.2791316579262295     T  T  T
     0.0000000000000000     0.7500000000000000     0.4558263315852459     F  F  F
     0.0000000000000000     0.7500000000000000     0.6325210052442624     T  T  T
     0.2500000000000000     0.0000000000000000     0.2791316579262295     T  T  T
     0.2500000000000000     0.0000000000000000     0.4558263315852459     F  F  F
     0.2500000000000000     0.0000000000000000     0.6325210052442624     T  T  T
     0.2500000000000000     0.2500000000000000     0.3674789947557377     T  T  T
     0.2500000000000000     0.2500000000000000     0.5441736684147541     F  F  F
     0.2500000000000000     0.2500000000000000     0.7208683420737706     T  T  T
     0.2500000000000000     0.4999999999999999     0.2791316579262295     T  T  T
     0.2500000000000000     0.4999999999999999     0.4558263315852459     F  F  F
     0.2500000000000000     0.4999999999999999     0.6325210052442624     T  T  T
     0.2500000000000000     0.7500000000000000     0.3674789947557377     T  T  T
     0.2500000000000000     0.7500000000000000     0.5441736684147541     F  F  F
     0.2500000000000000     0.7500000000000000     0.7208683420737706     T  T  T
     0.4999999999999999     0.0000000000000000     0.3674789947557377     T  T  T
     0.4999999999999999     0.0000000000000000     0.5441736684147541     F  F  F
     0.4999999999999999     0.0000000000000000     0.7208683420737706     T  T  T
     0.4999999999999999     0.2500000000000000     0.2791316579262295     T  T  T
     0.4999999999999999     0.2500000000000000     0.4558263315852459     F  F  F
     0.4999999999999999     0.2500000000000000     0.6325210052442624     T  T  T
     0.4999999999999999     0.4999999999999999     0.3674789947557377     T  T  T
     0.4999999999999999     0.4999999999999999     0.5441736684147541     F  F  F
     0.4999999999999999     0.4999999999999999     0.7208683420737706     T  T  T
     0.4999999999999999     0.7500000000000000     0.2791316579262295     T  T  T
     0.4999999999999999     0.7500000000000000     0.4558263315852459     F  F  F
     0.4999999999999999     0.7500000000000000     0.6325210052442624     T  T  T
     0.7500000000000000     0.0000000000000000     0.2791316579262295     T  T  T
     0.7500000000000000     0.0000000000000000     0.4558263315852459     F  F  F
     0.7500000000000000     0.0000000000000000     0.6325210052442624     T  T  T
     0.7500000000000000     0.2500000000000000     0.3674789947557377     T  T  T
     0.7500000000000000     0.2500000000000000     0.5441736684147541     F  F  F
     0.7500000000000000     0.2500000000000000     0.7208683420737706     T  T  T
     0.7500000000000000     0.4999999999999999     0.2791316579262295     T  T  T
     0.7500000000000000     0.4999999999999999     0.4558263315852459     F  F  F
     0.7500000000000000     0.4999999999999999     0.6325210052442624     T  T  T
     0.7500000000000000     0.7500000000000000     0.3674789947557377     T  T  T
     0.7500000000000000     0.7500000000000000     0.5441736684147541     F  F  F
     0.7500000000000000     0.7500000000000000     0.7208683420737706     T  T  T
     0.4999999999999999     0.2500000000000000     0.7208683420737706     T  T  T
