! Technical.

ENCUT = 800
GGA = PS
LASPH = .TRUE.
LREAL = .FALSE.
PREC = Accurate

! Electronic SCF.

ALGO = Normal
EDIFF = 1e-8
ISMEAR = 0
SIGMA = 0.01

! Phonon calculation (finite differences).

IBRION = 6
ISIF = 2
NSW = 1
POTIM = 1e-2

! Parallelisation.

KPAR = 2

! Misc.

LCHARG = .FALSE.
LWAVE = .FALSE.
SYSTEM = BaTiO3
