w-ZnO (mp-2133)
1.0
        3.2891030312         0.0000000000         0.0000000000
       -1.6445515156         2.8484467806         0.0000000000
        0.0000000000         0.0000000000         5.3068203926
   Zn    O
    2    2
Direct
     0.333333355         0.666666710         0.000548000
     0.666666620         0.333333313         0.500548017
     0.333333355         0.666666710         0.379761985
     0.666666620         0.333333313         0.879761985
