BaTiO3 (mp-2998)
1.0
        4.0355830193         0.0000000000         0.0000000000
        0.0000000000         4.0355830193         0.0000000000
        0.0000000000         0.0000000000         4.0355830193
   Ba   Ti    O
    1    1    3
Direct
     0.000000000         0.000000000         0.000000000
     0.500000000         0.500000000         0.500000000
     0.000000000         0.500000000         0.500000000
     0.500000000         0.000000000         0.500000000
     0.500000000         0.500000000         0.000000000
