Cu2ZnSnS4 (mp-1079541)
1.0
        5.4635357857         0.0000000000         0.0000000000
        0.0000000000         5.4635357857         0.0000000000
        0.0000000000         0.0000000000        10.9042453766
   Zn   Cu   Sn    S
    2    4    2    8
Direct
     0.000000000         0.500000000         0.250000000
     0.500000000        -0.000000000         0.750000044
     0.000000000         0.000000000         0.000000000
     0.500000000         0.500000000         0.500000000
     0.000000000         0.500000000         0.750000044
     0.500000000         0.000000000         0.250000000
     0.000000000         0.000000000         0.500000000
     0.500000000         0.500000000         0.000000000
     0.233664016         0.757677979         0.870846944
     0.766335962         0.242322021         0.870846944
     0.757677979         0.766335962         0.129153012
     0.242322021         0.233664016         0.129153012
     0.733663994         0.257678023         0.370846988
     0.266335984         0.742322064         0.370846988
     0.257678023         0.266335984         0.629153012
     0.742322064         0.733663994         0.629153012
