c-ZnO (mp-2133)
   1.0
     0.0000000000000000    2.3152258396000001    2.3152258396000001
     2.3152258396000001    0.0000000000000000    2.3152258396000001
     2.3152258396000001    2.3152258396000001    0.0000000000000000
Zn O
   1    1
Direct
  0.5000000000000000  0.5000000000000000  0.5000000000000000
  0.2500000000000000  0.2500000000000000  0.2500000000000000
