! Technical.

ENCUT = 800
GGA = PE
IVDW = 11
LASPH = .TRUE.
LREAL = .FALSE.
PREC = Accurate

! Electronic SCF.

ALGO = Normal
EDIFF = 1e-8
ISMEAR = 0
SIGMA = 0.01

! Geometry optimisation.

EDIFFG = -1e-2
IBRION = 2
ISIF = 4
NSW = 25

! Parallelisation.

NCORE = 18

! Misc.

LCHARG = .FALSE.
LWAVE = .FALSE.
SYSTEM = b-SA
