Succinic Acid (Beta P2_1/c)
   1.0000000000000000
     5.4640002251000004     0.0000000000000000     0.0000000000000000
     0.0000000000000000     8.7659997940000007     0.0000000000000000
    -0.2871785625000000     0.0000000000000000     4.9957528304999999
    H    C    O
   12    8    8
Direct
     0.0249999980000000     0.3321999880000000     0.5947000000000000
     0.0249999990000000     0.1677999980000000     0.0947000020000000
     0.1876000030000000     0.8960000510000000     0.1565000000000000
     0.1876000080000000     0.6039999490000000     0.6564999980000000
     0.4563999760000000     0.1192999980000000     0.3957999830000000
     0.4563999820000000     0.3807000020000000     0.8958000040000000
     0.5435999870000000     0.8806999750000000     0.6041999900000000
     0.5436000270000000     0.6193000250000000     0.1042000040000000
     0.8124000070000000     0.1040000030000000     0.8435000440000000
     0.8124000460000000     0.3959999970000000     0.3435000220000000
     0.9749999800000000     0.6678000120000001     0.4052999960000000
     0.9750000280000000     0.8321999879999999     0.9052999950000000
     0.0827999980000000     0.9324999620000000     0.9743999430000000
     0.0828000020000000     0.5674999840000000     0.4743999920000000
     0.2614000210000000     0.5343999990000000     0.2645000120000000
     0.2614000270000000     0.9656000550000000     0.7645000330000000
     0.7386000480000000     0.0343999990000000     0.2354999870000000
     0.7386000510000000     0.4656000010000000     0.7354999610000000
     0.9171999700000000     0.0675000040000000     0.0256000000000000
     0.9172000180000000     0.4325000160000000     0.5256000040000000
     0.2498999860000000     0.4219999970000000     0.1184999920000000
     0.2498999910000000     0.0780000030000000     0.6184999900000000
     0.4318000200000000     0.6406999830000000     0.2524999860000000
     0.4318000250000000     0.8593000170000000     0.7525000080000001
     0.5681999840000000     0.1406999970000000     0.2475000120000000
     0.5681999870000000     0.3593000170000000     0.7474999860000000
     0.7500999960000000     0.9219999700000000     0.3815000060000000
     0.7501000000000000     0.5780000300000000     0.8815000039999999
