PbS (mp-21276)
   1.0
     0.0000000000000000    3.0032234191999998    3.0032234191999998
     3.0032234191999998    0.0000000000000000    3.0032234191999998
     3.0032234191999998    3.0032234191999998    0.0000000000000000
Pb S
   1    1
Direct
  0.0000000000000000  0.0000000000000000  0.0000000000000000
  0.5000000000000000  0.5000000000000000  0.5000000000000000
